f
10
100
4
77
2
68
2
85
3
73
3
47
2
59
9
68
7
33
8
92
9
50
8
39
5
65
5
42
9
8
10
61
5
59
8
32
2
52
2
86
6
76
4
17
7
8
10
84
5
68
10
82
9
98
6
65
6
87
4
60
6
78
6
81
8
97
2
91
6
54
7
35
8
99
6
30
7
22
2
68
9
64
4
54
10
52
6
44
5
91
10
45
10
45
3
20
4
75
8
69
2
8
6
7
7
58
7
19
8
18
3
68
9
52
9
23
3
73
8
27
6
90
2
28
9
68
5
17
3
11
10
36
7
48
6
78
4
69
7
26
3
91
6
30
10
27
10
89
3
38
4
88
7
83
7
69
3
85
10
50
4
79
3
23
6
25
7
61
4
65
6
80
4
37
9
49
8
96
7
58
2
7
10
60
7
49
10
28
3
82
2
63
9
70
3
99
3
64
9
30
4
33
